************************************************************************
file with basedata            : md309_.bas
initial value random generator: 916330171
************************************************************************
projects                      :  1
jobs (incl. supersource/sink ):  20
horizon                       :  157
RESOURCES
  - renewable                 :  2   R
  - nonrenewable              :  2   N
  - doubly constrained        :  0   D
************************************************************************
PROJECT INFORMATION:
pronr.  #jobs rel.date duedate tardcost  MPM-Time
    1     18      0       20        1       20
************************************************************************
PRECEDENCE RELATIONS:
jobnr.    #modes  #successors   successors
   1        1          3           2   3   4
   2        3          3           5   6  11
   3        3          3           9  10  14
   4        3          3           7   9  13
   5        3          1          19
   6        3          2           9  17
   7        3          2           8  18
   8        3          3          10  12  14
   9        3          2          18  19
  10        3          1          11
  11        3          1          15
  12        3          2          15  16
  13        3          3          15  16  18
  14        3          1          16
  15        3          2          17  19
  16        3          1          17
  17        3          1          20
  18        3          1          20
  19        3          1          20
  20        1          0        
************************************************************************
REQUESTS/DURATIONS:
jobnr. mode duration  R 1  R 2  N 1  N 2
------------------------------------------------------------------------
  1      1     0       0    0    0    0
  2      1     1       6    1    9    8
         2     2       4    1    7    5
         3     8       2    1    5    5
  3      1     1       8   10    9    8
         2     7       4    9    9    4
         3    10       3    8    8    3
  4      1     3       6    5   10    8
         2     8       5    5    8    7
         3     9       3    4    7    6
  5      1     4       9    8    3    9
         2    10       8    8    3    4
         3    10       8    7    3    6
  6      1     4       8    7    5    4
         2     5       8    6    5    4
         3     9       8    5    5    2
  7      1     4       7    9    8    9
         2     6       6    9    8    8
         3     8       5    6    8    5
  8      1     1       6    6    5    8
         2     6       6    4    4    7
         3    10       4    3    3    7
  9      1     1       6    8    3    5
         2     6       5    5    2    5
         3    10       5    2    2    4
 10      1     3       2    9    4    8
         2     7       2    8    3    8
         3     8       1    8    3    8
 11      1     1       5    6    7    4
         2     1       6    6    6    4
         3     6       3    6    6    4
 12      1     5       6    2    6    7
         2     5       5    2    7    6
         3    10       4    1    4    1
 13      1     5       9    4    2    4
         2    10       8    3    1    4
         3    10       8    1    2    4
 14      1     5       6    3    6    9
         2     6       5    2    3    9
         3     8       4    1    1    9
 15      1     5       6    5    6    3
         2     7       5    3    5    3
         3     8       2    3    5    3
 16      1     3       6   10    4    9
         2     3       5    8    3   10
         3     6       3    6    1    9
 17      1     1       5    6    9    7
         2     3       4    5    6    7
         3     8       3    5    4    7
 18      1     2       7    9   10    8
         2     5       7    8   10    5
         3     9       5    7    9    3
 19      1     2       3   10    7   10
         2     4       3    7    4    9
         3    10       2    5    3    7
 20      1     0       0    0    0    0
************************************************************************
RESOURCEAVAILABILITIES:
  R 1  R 2  N 1  N 2
   14   13  105  120
************************************************************************
